 ! --------------------------------------------------- CP Optimizer 22.1.1.0 --
 ! Satisfiability problem - 22200 variables, 192687 constraints
 ! Presolve      : 13500 extractables eliminated
 ! TimeLimit            = 3600
 ! Workers              = 1
 ! Initial process time : 1.69s (1.67s extraction + 0.02s propagation)
 !  . Log search space  : 227469.8 (before), 227469.8 (after)
 !  . Memory usage      : 153.0 MB (before), 153.0 MB (after)
 ! Using sequential search.
 ! ----------------------------------------------------------------------------
 !               Branches  Non-fixed            Branch decision
                     1017      21037        F          presenceOf(copy_trips:2_0)
                     2000      14422                   presenceOf(copy_lane_parking:0_179)
                     3000       7921                   presenceOf(copy_lane_parking:5_32)
                     4000      15477        F          presenceOf(copy_trips:6_12)
                     5000       7921                  !presenceOf(copy_trips:5_167)
                     6000       7921                   presenceOf(copy_trips:6_222)
                     7000      14136        F         !presenceOf(copy_trips:7_58)
                     8000      14133                   presenceOf(copy_lane_parking:0_151)
                     9000      14142                   presenceOf(copy_lane_parking:2_141)
                    10000       8876                   presenceOf(copy_bus_parking:15_212)
                    11000      14142                   presenceOf(copy_lane_parking:4_9)
                    12000      14145                  !presenceOf(copy_trips:24_221)
                    13000      12225        F          presenceOf(copy_bus_parking:6_4)
                    14000      12210                  !presenceOf(copy_bus_parking:10_221)
                    15000       9942                  !presenceOf(copy_trips:23_36)
                    16000       9942        F         !presenceOf(copy_trips:16_0)
                    17000      15700        F          presenceOf(copy_trips:1_0)
                    18000      14139        F          presenceOf(copy_trips:19_221)
                    19000      14136                  !presenceOf(copy_bus_parking:3_222)
                    20000      14212                  !presenceOf(copy_bus_parking:24_29)
 ! Time = 14.16s, Average fail depth = 256, Memory usage = 476.7 MB
 !               Branches  Non-fixed            Branch decision
                    21000      15333                  !presenceOf(copy_bus_parking:7_29)
                    22000      15274        F          presenceOf(copy_bus_parking:20_21)
                    23000      14145                  !presenceOf(copy_bus_parking:21_224)
                    24000      14142        F          presenceOf(copy_bus_parking:26_222)
                    25000      14127        F          presenceOf(copy_bus_parking:24_222)
                    26000      14133                  !presenceOf(copy_bus_parking:29_221)
                    27000      14127        F          presenceOf(copy_bus_parking:20_221)
                    28000      11293                   presenceOf(copy_lane_parking:0_196)
                    29000      14142                  !presenceOf(copy_bus_parking:16_222)
                    30000      14142        F         !presenceOf(copy_trips:14_221)
                    31000      14151        F          presenceOf(copy_trips:16_224)
                    32000      14151        F          presenceOf(copy_trips:5_224)
                    33000      14145        F         !presenceOf(copy_bus_parking:22_222)
                    34000      14133        F          presenceOf(copy_trips:1_224)
                    35000      14142        F         !presenceOf(copy_trips:0_0)
                    36000      19125        F          presenceOf(copy_bus_parking:12_211)
                    37000      14631                  !presenceOf(copy_trips:6_58)
                    38000      14934                   presenceOf(copy_lane_parking:1_137)
                    39000      14133                  !presenceOf(copy_trips:3_222)
                    40000      14139                   presenceOf(copy_bus_parking:6_28)
 ! Time = 24.21s, Average fail depth = 258, Memory usage = 476.7 MB
 !               Branches  Non-fixed            Branch decision
                    41000      15222                   presenceOf(copy_lane_parking:1_66)
                    42000      14136        F          presenceOf(copy_bus_parking:12_20)
                    43000      14142        F          presenceOf(copy_trips:2_222)
                    44000      14142                  !presenceOf(copy_trips:7_6)
                    45000      18667        F         !presenceOf(copy_bus_parking:12_3)
                    46000      18666                  !presenceOf(copy_trips:11_6)
                    47000      18670                   presenceOf(copy_bus_parking:23_13)
                    48000      14139                  !presenceOf(copy_trips:6_224)
                    49000      14139                  !presenceOf(copy_trips:24_224)
                    50000      14139                  !presenceOf(copy_trips:9_224)
                    51000      14139                  !presenceOf(copy_trips:10_224)
                    52000      14142                  !presenceOf(copy_trips:17_224)
                    53000      14139                  !presenceOf(copy_trips:5_224)
                    54000      14139        F          presenceOf(copy_trips:16_222)
                    55000      14142                  !presenceOf(copy_trips:4_224)
                    56000      14139                  !presenceOf(copy_trips:27_224)
                    57000      14139        F          presenceOf(copy_trips:29_222)
                    58000      14142                  !presenceOf(copy_trips:11_224)
                    59000      14139                  !presenceOf(copy_trips:24_224)
                    60000      14136        F          presenceOf(copy_bus_parking:26_221)
 ! Time = 31.38s, Average fail depth = 271, Memory usage = 476.7 MB
 !               Branches  Non-fixed            Branch decision
                    61000      14142        F          presenceOf(copy_trips:10_221)
                    62000      14142                   presenceOf(copy_lane_parking:3_166)
                    63000      14124                   presenceOf(copy_lane_parking:1_63)
                    64000      10095                  !presenceOf(copy_trips:10_28)
                    65000      10095                  !presenceOf(copy_bus_parking:11_218)
                    66000      12525                  !presenceOf(copy_bus_parking:27_218)
                    67000      12525        F          presenceOf(copy_bus_parking:27_218)
                    68000       7808        F          presenceOf(copy_trips:13_220)
                    69000       7700        F         !presenceOf(copy_trips:9_8)
                    70000      18808                  !presenceOf(copy_trips:7_8)
                    71000      18808        F         !presenceOf(copy_trips:4_8)
                    72000      18808        F          presenceOf(copy_trips:7_10)
                    73000      18808        F          presenceOf(copy_bus_parking:2_9)
                    74000      18808        F          presenceOf(copy_bus_parking:3_11)
                    75000      18808        F         !presenceOf(copy_trips:13_3)
                    76000      18808                  !presenceOf(copy_trips:2_10)
                    77000      18808        F          presenceOf(copy_trips:9_10)
                    78000      18808                  !presenceOf(copy_trips:7_10)
                    79000      18808        F          presenceOf(copy_trips:7_10)
                    80000      18808        F          presenceOf(copy_trips:9_8)
 ! Time = 38.35s, Average fail depth = 271, Memory usage = 476.8 MB
 !               Branches  Non-fixed            Branch decision
                    81000      18808        F          presenceOf(copy_trips:4_3)
                    82000      13141                  !presenceOf(copy_trips:4_2)
                    83000       7908        F         !presenceOf(copy_bus_parking:2_153)
                    84000       7908                  !presenceOf(copy_bus_parking:1_24)
                    85000       9851        F          presenceOf(copy_bus_parking:24_1)
                    86000      15511                   presenceOf(copy_bus_parking:26_102)
                    87000      10411        F          presenceOf(copy_bus_parking:21_28)
                    88000      10078        F         !presenceOf(copy_bus_parking:22_27)
                    89000      10078                  !presenceOf(copy_bus_parking:25_27)
                    90000      10078                   presenceOf(copy_lane_parking:3_38)
                    91000       7807                   presenceOf(copy_bus_parking:5_56)
                    92000      15020        F          presenceOf(copy_trips:25_70)
                    93000      14302                   presenceOf(copy_bus_parking:4_98)
                    94000      10768                   presenceOf(copy_lane_parking:1_65)
                    95000      14283        F          presenceOf(copy_trips:12_60)
                    96000       7913                   presenceOf(copy_lane_parking:0_136)
                    97000      14154        F          presenceOf(copy_bus_parking:17_20)
                    98000       7915                  !presenceOf(copy_bus_parking:27_155)
                    99000       7915                  !presenceOf(copy_trips:17_167)
                     100k       7921                   presenceOf(copy_trips:29_39)
 ! Time = 50.84s, Average fail depth = 277, Memory usage = 477.5 MB
 !               Branches  Non-fixed            Branch decision
                     101k      10405                   presenceOf(copy_lane_parking:0_6)
                     102k      15118                   presenceOf(copy_lane_parking:4_33)
                     103k      12748                   presenceOf(copy_bus_parking:13_59)
                     104k       9948        F          presenceOf(copy_trips:3_27)
                     105k       9948                  !presenceOf(copy_bus_parking:17_24)
                     106k       9948        F          presenceOf(copy_trips:16_27)
                     107k       9948                  !presenceOf(copy_bus_parking:6_42)
                     108k      17266                  !presenceOf(copy_bus_parking:10_44)
                     109k      14019                   presenceOf(copy_trips:17_74)
                     110k      14019        F         !presenceOf(copy_trips:6_71)
                     111k      14017                   presenceOf(copy_lane_parking:2_18)
                     112k      10405                  !presenceOf(copy_trips:22_28)
                     113k      10405                  !presenceOf(copy_trips:16_28)
                     114k      10405                  !presenceOf(copy_trips:12_28)
                     115k      10405        F          presenceOf(copy_bus_parking:20_20)
                     116k      15392                  !presenceOf(copy_bus_parking:18_12)
                     117k      15377        F          presenceOf(copy_bus_parking:3_20)
                     118k      14789                  !presenceOf(copy_bus_parking:1_13)
                     119k      14786                  !presenceOf(copy_bus_parking:14_20)
                     120k      14864        F          presenceOf(copy_trips:24_1)
 ! Time = 62.50s, Average fail depth = 281, Memory usage = 477.5 MB
 !               Branches  Non-fixed            Branch decision
                     121k      14867        F          presenceOf(copy_bus_parking:7_20)
                     122k      15258        F          presenceOf(copy_trips:16_58)
                     123k      14789                  !presenceOf(copy_trips:13_58)
                     124k      14786        F          presenceOf(copy_bus_parking:4_20)
                     125k      15374        F          presenceOf(copy_bus_parking:4_20)
                     126k      15389        F          presenceOf(copy_bus_parking:27_20)
                     127k      15258                   presenceOf(copy_trips:12_58)
                     128k      14139        F          presenceOf(copy_trips:25_221)
                     129k       7916                   presenceOf(copy_lane_parking:4_147)
                     130k      14109        F          presenceOf(copy_bus_parking:15_221)
                     131k      14109                   presenceOf(copy_bus_parking:0_221)
                     132k      14109        F          presenceOf(copy_bus_parking:14_221)
                     133k      14115        F          presenceOf(copy_bus_parking:9_221)
                     134k      14106                  !presenceOf(copy_bus_parking:3_222)
                     135k      14109                  !presenceOf(copy_bus_parking:23_222)
                     136k      14112        F          presenceOf(copy_bus_parking:15_221)
                     137k      14109        F         !presenceOf(copy_bus_parking:27_224)
                     138k      14112                  !presenceOf(copy_bus_parking:9_222)
                     139k      14109                   presenceOf(copy_bus_parking:21_220)
                     140k      14109                   presenceOf(copy_bus_parking:21_221)
 ! Time = 70.96s, Average fail depth = 284, Memory usage = 477.5 MB
 !               Branches  Non-fixed            Branch decision
                     141k      14109                  !presenceOf(copy_bus_parking:5_222)
                     142k      14112                  !presenceOf(copy_bus_parking:26_222)
                     143k      14112                  !presenceOf(copy_bus_parking:6_222)
                     144k      14109                  !presenceOf(copy_bus_parking:14_222)
                     145k      14109                  !presenceOf(copy_bus_parking:23_222)
                     146k      14109        F          presenceOf(copy_bus_parking:18_221)
                     147k      14109                  !presenceOf(copy_bus_parking:12_221)
                     148k      14112                  !presenceOf(copy_bus_parking:12_221)
                     149k      14109        F          presenceOf(copy_bus_parking:9_221)
                     150k      14109        F          presenceOf(copy_bus_parking:14_221)
                     151k      14109        F          presenceOf(copy_bus_parking:7_220)
                     152k      14109        F          presenceOf(copy_bus_parking:18_221)
                     153k      14106        F          presenceOf(copy_bus_parking:2_221)
                     154k      14109        F          presenceOf(copy_bus_parking:3_221)
                     155k      14112        F          presenceOf(copy_bus_parking:3_221)
                     156k      14109        F          presenceOf(copy_bus_parking:20_221)
                     157k      14109                  !presenceOf(copy_bus_parking:3_222)
                     158k      14109                  !presenceOf(copy_bus_parking:28_222)
                     159k      14109        F         !presenceOf(copy_bus_parking:27_224)
                     160k      14112                  !presenceOf(copy_bus_parking:10_222)
 ! Time = 76.95s, Average fail depth = 287, Memory usage = 477.5 MB
 !               Branches  Non-fixed            Branch decision
                     161k      14109        F          presenceOf(copy_bus_parking:7_221)
                     162k      14109                  !presenceOf(copy_bus_parking:6_222)
                     163k      14109        F          presenceOf(copy_bus_parking:28_222)
                     164k      14109                   presenceOf(copy_bus_parking:10_221)
                     165k      14109                  !presenceOf(copy_bus_parking:7_222)
                     166k      14109        F          presenceOf(copy_bus_parking:27_220)
                     167k      14112        F          presenceOf(copy_bus_parking:24_221)
                     168k      14106                  !presenceOf(copy_bus_parking:26_222)
                     169k      14109                  !presenceOf(copy_bus_parking:19_222)
                     170k      14112                   presenceOf(copy_bus_parking:17_221)
                     171k      14115        F          presenceOf(copy_bus_parking:4_221)
                     172k      14109                  !presenceOf(copy_bus_parking:11_222)
                     173k      14109        F          presenceOf(copy_bus_parking:15_221)
                     174k      14109        F          presenceOf(copy_bus_parking:14_221)
                     175k      14115        F          presenceOf(copy_bus_parking:6_221)
                     176k      14109        F          presenceOf(copy_bus_parking:27_221)
                     177k      14112                   presenceOf(copy_bus_parking:29_221)
                     178k      14109                  !presenceOf(copy_bus_parking:6_222)
                     179k      14109        F          presenceOf(copy_bus_parking:3_221)
                     180k      14109                   presenceOf(copy_bus_parking:29_221)
 ! Time = 82.86s, Average fail depth = 289, Memory usage = 477.5 MB
 !               Branches  Non-fixed            Branch decision
                     181k       7912        F          presenceOf(copy_bus_parking:14_167)
                     182k       7912                  !presenceOf(copy_bus_parking:8_9)
                     183k       9987                  !presenceOf(copy_trips:12_26)
                     184k      10099        F   on charge:27_69
                     185k       5492                   presenceOf(copy_lane_parking:3_210)
                     186k       7913                   presenceOf(copy_trips:2_47)
                     187k      14133                  !presenceOf(copy_trips:26_222)
                     188k      14139        F          presenceOf(copy_trips:14_49)
                     189k       7463                   presenceOf(copy_lane_parking:4_92)
                     190k       7027                   presenceOf(copy_trips:9_118)
                     191k       7910                  !presenceOf(copy_trips:13_31)
                     192k      14133                  !presenceOf(copy_trips:25_224)
                     193k      14133                   presenceOf(copy_trips:17_136)
                     194k      11106        F          presenceOf(copy_trips:17_25)
                     195k       7812                   presenceOf(copy_bus_parking:21_167)
                     196k       7812                   presenceOf(copy_bus_parking:10_60)
                     197k       9860        F          presenceOf(copy_trips:8_24)
                     198k       9860        F          presenceOf(copy_trips:2_24)
                     199k       9860        F          presenceOf(copy_trips:12_26)
                     200k       9860           1293  = startOf(charge:14_62)
 ! Time = 96.15s, Average fail depth = 288, Memory usage = 496.9 MB
 !               Branches  Non-fixed            Branch decision
                     201k       9541        F          presenceOf(copy_trips:19_76)
                     202k       6123            771  = startOf(charge:16_24)
                     203k       5663                   presenceOf(copy_lane_parking:2_153)
 *                   203k  98.50s                    -
 ! ----------------------------------------------------------------------------
 ! Search completed, 1 solution found.
 ! ----------------------------------------------------------------------------
 ! Number of branches     : 203566
 ! Number of fails        : 85149
 ! Total memory usage     : 544.0 MB (530.2 MB CP Optimizer + 13.7 MB Concert)
 ! Time spent in solve    : 98.50s (96.84s engine + 1.67s extraction)
 ! Search speed (br. / s) : 2102.3
 ! ----------------------------------------------------------------------------
